; benchmark generated from python API
(set-info :status unknown)
(declare-fun cell_1_2 () Int)
(declare-fun cell_1_6 () Int)
(declare-fun cell_2_1 () Int)
(declare-fun cell_2_6 () Int)
(declare-fun cell_3_8 () Int)
(declare-fun cell_3_9 () Int)
(declare-fun cell_4_4 () Int)
(declare-fun cell_5_3 () Int)
(declare-fun cell_6_8 () Int)
(declare-fun cell_7_5 () Int)
(declare-fun cell_8_7 () Int)
(declare-fun cell_9_1 () Int)
(declare-fun cell_1_1 () Int)
(declare-fun cell_3_1 () Int)
(declare-fun cell_4_1 () Int)
(declare-fun cell_5_1 () Int)
(declare-fun cell_6_1 () Int)
(declare-fun cell_7_1 () Int)
(declare-fun cell_8_1 () Int)
(declare-fun cell_2_2 () Int)
(declare-fun cell_3_2 () Int)
(declare-fun cell_4_2 () Int)
(declare-fun cell_5_2 () Int)
(declare-fun cell_6_2 () Int)
(declare-fun cell_7_2 () Int)
(declare-fun cell_8_2 () Int)
(declare-fun cell_9_2 () Int)
(declare-fun cell_1_3 () Int)
(declare-fun cell_2_3 () Int)
(declare-fun cell_3_3 () Int)
(declare-fun cell_4_3 () Int)
(declare-fun cell_6_3 () Int)
(declare-fun cell_7_3 () Int)
(declare-fun cell_8_3 () Int)
(declare-fun cell_9_3 () Int)
(declare-fun cell_1_4 () Int)
(declare-fun cell_2_4 () Int)
(declare-fun cell_3_4 () Int)
(declare-fun cell_5_4 () Int)
(declare-fun cell_6_4 () Int)
(declare-fun cell_7_4 () Int)
(declare-fun cell_8_4 () Int)
(declare-fun cell_9_4 () Int)
(declare-fun cell_1_5 () Int)
(declare-fun cell_2_5 () Int)
(declare-fun cell_3_5 () Int)
(declare-fun cell_4_5 () Int)
(declare-fun cell_5_5 () Int)
(declare-fun cell_6_5 () Int)
(declare-fun cell_8_5 () Int)
(declare-fun cell_9_5 () Int)
(declare-fun cell_3_6 () Int)
(declare-fun cell_4_6 () Int)
(declare-fun cell_5_6 () Int)
(declare-fun cell_6_6 () Int)
(declare-fun cell_7_6 () Int)
(declare-fun cell_8_6 () Int)
(declare-fun cell_9_6 () Int)
(declare-fun cell_1_7 () Int)
(declare-fun cell_2_7 () Int)
(declare-fun cell_3_7 () Int)
(declare-fun cell_4_7 () Int)
(declare-fun cell_5_7 () Int)
(declare-fun cell_6_7 () Int)
(declare-fun cell_7_7 () Int)
(declare-fun cell_9_7 () Int)
(declare-fun cell_1_8 () Int)
(declare-fun cell_2_8 () Int)
(declare-fun cell_4_8 () Int)
(declare-fun cell_5_8 () Int)
(declare-fun cell_7_8 () Int)
(declare-fun cell_8_8 () Int)
(declare-fun cell_9_8 () Int)
(declare-fun cell_1_9 () Int)
(declare-fun cell_2_9 () Int)
(declare-fun cell_4_9 () Int)
(declare-fun cell_5_9 () Int)
(declare-fun cell_6_9 () Int)
(declare-fun cell_7_9 () Int)
(declare-fun cell_8_9 () Int)
(declare-fun cell_9_9 () Int)
(assert
 (= cell_1_2 1))
(assert
 (= cell_1_6 2))
(assert
 (= cell_2_1 2))
(assert
 (= cell_2_6 1))
(assert
 (= cell_3_8 2))
(assert
 (= cell_3_9 1))
(assert
 (= cell_4_4 1))
(assert
 (= cell_5_3 1))
(assert
 (= cell_6_8 1))
(assert
 (= cell_7_5 1))
(assert
 (= cell_8_7 1))
(assert
 (= cell_9_1 1))
(assert
 (let (($x2713 (= cell_1_1 9)))
 (let (($x1821 (= cell_1_1 8)))
 (let (($x189 (= cell_1_1 7)))
 (let (($x1506 (= cell_1_1 6)))
 (let (($x2164 (= cell_1_1 5)))
 (let (($x402 (= cell_1_1 4)))
 (let (($x3170 (= cell_1_1 3)))
 (let (($x883 (= cell_1_1 2)))
 (let (($x796 (= cell_1_1 1)))
 (or $x796 $x883 $x3170 $x402 $x2164 $x1506 $x189 $x1821 $x2713)))))))))))
(assert
 (let (($x2023 (= cell_2_1 2)))
 (or (= cell_2_1 1) $x2023 (= cell_2_1 3) (= cell_2_1 4) (= cell_2_1 5) (= cell_2_1 6) (= cell_2_1 7) (= cell_2_1 8) (= cell_2_1 9))))
(assert
 (let (($x2187 (= cell_3_1 9)))
 (let (($x2764 (= cell_3_1 8)))
 (let (($x2545 (= cell_3_1 7)))
 (let (($x2540 (= cell_3_1 6)))
 (let (($x276 (= cell_3_1 5)))
 (let (($x2467 (= cell_3_1 4)))
 (let (($x2244 (= cell_3_1 3)))
 (let (($x708 (= cell_3_1 2)))
 (let (($x145 (= cell_3_1 1)))
 (or $x145 $x708 $x2244 $x2467 $x276 $x2540 $x2545 $x2764 $x2187)))))))))))
(assert
 (let (($x423 (= cell_4_1 9)))
 (let (($x3965 (= cell_4_1 8)))
 (let (($x2476 (= cell_4_1 7)))
 (let (($x2258 (= cell_4_1 6)))
 (let (($x3980 (= cell_4_1 5)))
 (let (($x1832 (= cell_4_1 4)))
 (let (($x1935 (= cell_4_1 3)))
 (let (($x25 (= cell_4_1 2)))
 (let (($x1705 (= cell_4_1 1)))
 (or $x1705 $x25 $x1935 $x1832 $x3980 $x2258 $x2476 $x3965 $x423)))))))))))
(assert
 (let (($x1997 (= cell_5_1 9)))
 (let (($x2656 (= cell_5_1 8)))
 (let (($x576 (= cell_5_1 7)))
 (let (($x458 (= cell_5_1 6)))
 (let (($x1688 (= cell_5_1 5)))
 (let (($x3062 (= cell_5_1 4)))
 (let (($x2661 (= cell_5_1 3)))
 (let (($x2779 (= cell_5_1 2)))
 (let (($x2626 (= cell_5_1 1)))
 (or $x2626 $x2779 $x2661 $x3062 $x1688 $x458 $x576 $x2656 $x1997)))))))))))
(assert
 (let (($x87 (= cell_6_1 9)))
 (let (($x1133 (= cell_6_1 8)))
 (let (($x2458 (= cell_6_1 7)))
 (let (($x1316 (= cell_6_1 6)))
 (let (($x2058 (= cell_6_1 5)))
 (let (($x2031 (= cell_6_1 4)))
 (let (($x1313 (= cell_6_1 3)))
 (let (($x3823 (= cell_6_1 2)))
 (let (($x1951 (= cell_6_1 1)))
 (or $x1951 $x3823 $x1313 $x2031 $x2058 $x1316 $x2458 $x1133 $x87)))))))))))
(assert
 (let (($x3614 (= cell_7_1 9)))
 (let (($x1157 (= cell_7_1 8)))
 (let (($x2499 (= cell_7_1 7)))
 (let (($x2934 (= cell_7_1 6)))
 (let (($x3496 (= cell_7_1 5)))
 (let (($x1903 (= cell_7_1 4)))
 (let (($x2465 (= cell_7_1 3)))
 (let (($x3448 (= cell_7_1 2)))
 (let (($x2327 (= cell_7_1 1)))
 (or $x2327 $x3448 $x2465 $x1903 $x3496 $x2934 $x2499 $x1157 $x3614)))))))))))
(assert
 (let (($x3228 (= cell_8_1 9)))
 (let (($x2096 (= cell_8_1 8)))
 (let (($x165 (= cell_8_1 7)))
 (let (($x3561 (= cell_8_1 6)))
 (let (($x1553 (= cell_8_1 5)))
 (let (($x1727 (= cell_8_1 4)))
 (let (($x456 (= cell_8_1 3)))
 (let (($x332 (= cell_8_1 2)))
 (let (($x1852 (= cell_8_1 1)))
 (or $x1852 $x332 $x456 $x1727 $x1553 $x3561 $x165 $x2096 $x3228)))))))))))
(assert
 (let (($x34 (= cell_9_1 1)))
 (or $x34 (= cell_9_1 2) (= cell_9_1 3) (= cell_9_1 4) (= cell_9_1 5) (= cell_9_1 6) (= cell_9_1 7) (= cell_9_1 8) (= cell_9_1 9))))
(assert
 (let (($x3836 (= cell_1_2 1)))
 (or $x3836 (= cell_1_2 2) (= cell_1_2 3) (= cell_1_2 4) (= cell_1_2 5) (= cell_1_2 6) (= cell_1_2 7) (= cell_1_2 8) (= cell_1_2 9))))
(assert
 (let (($x7789 (= cell_2_2 9)))
 (let (($x193 (= cell_2_2 8)))
 (let (($x1538 (= cell_2_2 7)))
 (let (($x4141 (= cell_2_2 6)))
 (let (($x752 (= cell_2_2 5)))
 (let (($x2464 (= cell_2_2 4)))
 (let (($x3596 (= cell_2_2 3)))
 (let (($x2510 (= cell_2_2 2)))
 (let (($x2546 (= cell_2_2 1)))
 (or $x2546 $x2510 $x3596 $x2464 $x752 $x4141 $x1538 $x193 $x7789)))))))))))
(assert
 (let (($x2951 (= cell_3_2 9)))
 (let (($x633 (= cell_3_2 8)))
 (let (($x3427 (= cell_3_2 7)))
 (let (($x295 (= cell_3_2 6)))
 (let (($x3419 (= cell_3_2 5)))
 (let (($x3143 (= cell_3_2 4)))
 (let (($x1641 (= cell_3_2 3)))
 (let (($x1092 (= cell_3_2 2)))
 (let (($x1878 (= cell_3_2 1)))
 (or $x1878 $x1092 $x1641 $x3143 $x3419 $x295 $x3427 $x633 $x2951)))))))))))
(assert
 (let (($x1600 (= cell_4_2 9)))
 (let (($x621 (= cell_4_2 8)))
 (let (($x1758 (= cell_4_2 7)))
 (let (($x3138 (= cell_4_2 6)))
 (let (($x3822 (= cell_4_2 5)))
 (let (($x1180 (= cell_4_2 4)))
 (let (($x1971 (= cell_4_2 3)))
 (let (($x83 (= cell_4_2 2)))
 (let (($x541 (= cell_4_2 1)))
 (or $x541 $x83 $x1971 $x1180 $x3822 $x3138 $x1758 $x621 $x1600)))))))))))
(assert
 (let (($x976 (= cell_5_2 9)))
 (let (($x1033 (= cell_5_2 8)))
 (let (($x2707 (= cell_5_2 7)))
 (let (($x968 (= cell_5_2 6)))
 (let (($x376 (= cell_5_2 5)))
 (let (($x2516 (= cell_5_2 4)))
 (let (($x166 (= cell_5_2 3)))
 (let (($x416 (= cell_5_2 2)))
 (let (($x2615 (= cell_5_2 1)))
 (or $x2615 $x416 $x166 $x2516 $x376 $x968 $x2707 $x1033 $x976)))))))))))
(assert
 (let (($x502 (= cell_6_2 9)))
 (let (($x2089 (= cell_6_2 8)))
 (let (($x1514 (= cell_6_2 7)))
 (let (($x1377 (= cell_6_2 6)))
 (let (($x501 (= cell_6_2 5)))
 (let (($x2206 (= cell_6_2 4)))
 (let (($x2786 (= cell_6_2 3)))
 (let (($x3441 (= cell_6_2 2)))
 (let (($x1530 (= cell_6_2 1)))
 (or $x1530 $x3441 $x2786 $x2206 $x501 $x1377 $x1514 $x2089 $x502)))))))))))
(assert
 (let (($x2920 (= cell_7_2 9)))
 (let (($x704 (= cell_7_2 8)))
 (let (($x3141 (= cell_7_2 7)))
 (let (($x1979 (= cell_7_2 6)))
 (let (($x1229 (= cell_7_2 5)))
 (let (($x2807 (= cell_7_2 4)))
 (let (($x311 (= cell_7_2 3)))
 (let (($x2198 (= cell_7_2 2)))
 (let (($x1022 (= cell_7_2 1)))
 (or $x1022 $x2198 $x311 $x2807 $x1229 $x1979 $x3141 $x704 $x2920)))))))))))
(assert
 (let (($x1520 (= cell_8_2 9)))
 (let (($x348 (= cell_8_2 8)))
 (let (($x2342 (= cell_8_2 7)))
 (let (($x2946 (= cell_8_2 6)))
 (let (($x3631 (= cell_8_2 5)))
 (let (($x1027 (= cell_8_2 4)))
 (let (($x3716 (= cell_8_2 3)))
 (let (($x1116 (= cell_8_2 2)))
 (let (($x1201 (= cell_8_2 1)))
 (or $x1201 $x1116 $x3716 $x1027 $x3631 $x2946 $x2342 $x348 $x1520)))))))))))
(assert
 (let (($x798 (= cell_9_2 2)))
 (let (($x1829 (= cell_9_2 1)))
 (or $x1829 $x798 (= cell_9_2 3) (= cell_9_2 4) (= cell_9_2 5) (= cell_9_2 6) (= cell_9_2 7) (= cell_9_2 8) (= cell_9_2 9)))))
(assert
 (let (($x478 (= cell_1_3 9)))
 (let (($x2684 (= cell_1_3 8)))
 (let (($x2528 (= cell_1_3 7)))
 (let (($x2279 (= cell_1_3 6)))
 (let (($x1502 (= cell_1_3 5)))
 (let (($x479 (= cell_1_3 4)))
 (let (($x1531 (= cell_1_3 3)))
 (let (($x1609 (= cell_1_3 2)))
 (let (($x548 (= cell_1_3 1)))
 (or $x548 $x1609 $x1531 $x479 $x1502 $x2279 $x2528 $x2684 $x478)))))))))))
(assert
 (let (($x2162 (= cell_2_3 9)))
 (let (($x628 (= cell_2_3 8)))
 (let (($x521 (= cell_2_3 7)))
 (let (($x2419 (= cell_2_3 6)))
 (let (($x2699 (= cell_2_3 5)))
 (let (($x18 (= cell_2_3 4)))
 (let (($x449 (= cell_2_3 3)))
 (let (($x797 (= cell_2_3 2)))
 (let (($x3111 (= cell_2_3 1)))
 (or $x3111 $x797 $x449 $x18 $x2699 $x2419 $x521 $x628 $x2162)))))))))))
(assert
 (let (($x2477 (= cell_3_3 9)))
 (let (($x112 (= cell_3_3 8)))
 (let (($x2316 (= cell_3_3 7)))
 (let (($x948 (= cell_3_3 6)))
 (let (($x3251 (= cell_3_3 5)))
 (let (($x1440 (= cell_3_3 4)))
 (let (($x2246 (= cell_3_3 3)))
 (let (($x1450 (= cell_3_3 2)))
 (let (($x3385 (= cell_3_3 1)))
 (or $x3385 $x1450 $x2246 $x1440 $x3251 $x948 $x2316 $x112 $x2477)))))))))))
(assert
 (let (($x2517 (= cell_4_3 9)))
 (let (($x2588 (= cell_4_3 8)))
 (let (($x7672 (= cell_4_3 7)))
 (let (($x861 (= cell_4_3 6)))
 (let (($x361 (= cell_4_3 5)))
 (let (($x2370 (= cell_4_3 4)))
 (let (($x760 (= cell_4_3 3)))
 (let (($x3357 (= cell_4_3 2)))
 (let (($x1725 (= cell_4_3 1)))
 (or $x1725 $x3357 $x760 $x2370 $x361 $x861 $x7672 $x2588 $x2517)))))))))))
(assert
 (let (($x1170 (= cell_5_3 1)))
 (or $x1170 (= cell_5_3 2) (= cell_5_3 3) (= cell_5_3 4) (= cell_5_3 5) (= cell_5_3 6) (= cell_5_3 7) (= cell_5_3 8) (= cell_5_3 9))))
(assert
 (let (($x1707 (= cell_6_3 9)))
 (let (($x2296 (= cell_6_3 8)))
 (let (($x1176 (= cell_6_3 7)))
 (let (($x629 (= cell_6_3 6)))
 (let (($x2146 (= cell_6_3 5)))
 (let (($x757 (= cell_6_3 4)))
 (let (($x653 (= cell_6_3 3)))
 (let (($x1268 (= cell_6_3 2)))
 (let (($x2153 (= cell_6_3 1)))
 (or $x2153 $x1268 $x653 $x757 $x2146 $x629 $x1176 $x2296 $x1707)))))))))))
(assert
 (let (($x674 (= cell_7_3 9)))
 (let (($x70 (= cell_7_3 8)))
 (let (($x1796 (= cell_7_3 7)))
 (let (($x1720 (= cell_7_3 6)))
 (let (($x2010 (= cell_7_3 5)))
 (let (($x1340 (= cell_7_3 4)))
 (let (($x3012 (= cell_7_3 3)))
 (let (($x1121 (= cell_7_3 2)))
 (let (($x2798 (= cell_7_3 1)))
 (or $x2798 $x1121 $x3012 $x1340 $x2010 $x1720 $x1796 $x70 $x674)))))))))))
(assert
 (let (($x1887 (= cell_8_3 9)))
 (let (($x543 (= cell_8_3 8)))
 (let (($x1002 (= cell_8_3 7)))
 (let (($x2406 (= cell_8_3 6)))
 (let (($x1181 (= cell_8_3 5)))
 (let (($x3720 (= cell_8_3 4)))
 (let (($x1297 (= cell_8_3 3)))
 (let (($x7750 (= cell_8_3 2)))
 (let (($x388 (= cell_8_3 1)))
 (or $x388 $x7750 $x1297 $x3720 $x1181 $x2406 $x1002 $x543 $x1887)))))))))))
(assert
 (let (($x1244 (= cell_9_3 1)))
 (or $x1244 (= cell_9_3 2) (= cell_9_3 3) (= cell_9_3 4) (= cell_9_3 5) (= cell_9_3 6) (= cell_9_3 7) (= cell_9_3 8) (= cell_9_3 9))))
(assert
 (let (($x1258 (= cell_1_4 9)))
 (let (($x2605 (= cell_1_4 8)))
 (let (($x2794 (= cell_1_4 7)))
 (let (($x2881 (= cell_1_4 6)))
 (let (($x8017 (= cell_1_4 5)))
 (let (($x573 (= cell_1_4 4)))
 (let (($x1186 (= cell_1_4 3)))
 (let (($x326 (= cell_1_4 2)))
 (let (($x2267 (= cell_1_4 1)))
 (or $x2267 $x326 $x1186 $x573 $x8017 $x2881 $x2794 $x2605 $x1258)))))))))))
(assert
 (let (($x259 (= cell_2_4 9)))
 (let (($x3522 (= cell_2_4 8)))
 (let (($x4003 (= cell_2_4 7)))
 (let (($x2189 (= cell_2_4 6)))
 (let (($x2650 (= cell_2_4 5)))
 (let (($x612 (= cell_2_4 4)))
 (let (($x2358 (= cell_2_4 3)))
 (let (($x4162 (= cell_2_4 2)))
 (let (($x1383 (= cell_2_4 1)))
 (or $x1383 $x4162 $x2358 $x612 $x2650 $x2189 $x4003 $x3522 $x259)))))))))))
(assert
 (let (($x787 (= cell_3_4 9)))
 (let (($x3299 (= cell_3_4 8)))
 (let (($x333 (= cell_3_4 7)))
 (let (($x2188 (= cell_3_4 6)))
 (let (($x1355 (= cell_3_4 5)))
 (let (($x3957 (= cell_3_4 4)))
 (let (($x22 (= cell_3_4 3)))
 (let (($x2462 (= cell_3_4 2)))
 (let (($x2338 (= cell_3_4 1)))
 (or $x2338 $x2462 $x22 $x3957 $x1355 $x2188 $x333 $x3299 $x787)))))))))))
(assert
 (let (($x2933 (= cell_4_4 1)))
 (or $x2933 (= cell_4_4 2) (= cell_4_4 3) (= cell_4_4 4) (= cell_4_4 5) (= cell_4_4 6) (= cell_4_4 7) (= cell_4_4 8) (= cell_4_4 9))))
(assert
 (let (($x2739 (= cell_5_4 9)))
 (let (($x707 (= cell_5_4 8)))
 (let (($x3165 (= cell_5_4 7)))
 (let (($x503 (= cell_5_4 6)))
 (let (($x1096 (= cell_5_4 5)))
 (let (($x78 (= cell_5_4 4)))
 (let (($x2177 (= cell_5_4 3)))
 (let (($x1690 (= cell_5_4 2)))
 (let (($x3560 (= cell_5_4 1)))
 (or $x3560 $x1690 $x2177 $x78 $x1096 $x503 $x3165 $x707 $x2739)))))))))))
(assert
 (let (($x2428 (= cell_6_4 9)))
 (let (($x2783 (= cell_6_4 8)))
 (let (($x1183 (= cell_6_4 7)))
 (let (($x1926 (= cell_6_4 6)))
 (let (($x645 (= cell_6_4 5)))
 (let (($x2407 (= cell_6_4 4)))
 (let (($x1428 (= cell_6_4 3)))
 (let (($x2592 (= cell_6_4 2)))
 (let (($x1459 (= cell_6_4 1)))
 (or $x1459 $x2592 $x1428 $x2407 $x645 $x1926 $x1183 $x2783 $x2428)))))))))))
(assert
 (let (($x4174 (= cell_7_4 9)))
 (let (($x2731 (= cell_7_4 8)))
 (let (($x389 (= cell_7_4 7)))
 (let (($x3036 (= cell_7_4 6)))
 (let (($x51 (= cell_7_4 5)))
 (let (($x1654 (= cell_7_4 4)))
 (let (($x3933 (= cell_7_4 3)))
 (let (($x470 (= cell_7_4 2)))
 (let (($x7840 (= cell_7_4 1)))
 (or $x7840 $x470 $x3933 $x1654 $x51 $x3036 $x389 $x2731 $x4174)))))))))))
(assert
 (let (($x4211 (= cell_8_4 9)))
 (let (($x1489 (= cell_8_4 8)))
 (let (($x7841 (= cell_8_4 7)))
 (let (($x2760 (= cell_8_4 6)))
 (let (($x1185 (= cell_8_4 5)))
 (let (($x3624 (= cell_8_4 4)))
 (let (($x2985 (= cell_8_4 3)))
 (let (($x2914 (= cell_8_4 2)))
 (let (($x2289 (= cell_8_4 1)))
 (or $x2289 $x2914 $x2985 $x3624 $x1185 $x2760 $x7841 $x1489 $x4211)))))))))))
(assert
 (let (($x3931 (= cell_9_4 1)))
 (or $x3931 (= cell_9_4 2) (= cell_9_4 3) (= cell_9_4 4) (= cell_9_4 5) (= cell_9_4 6) (= cell_9_4 7) (= cell_9_4 8) (= cell_9_4 9))))
(assert
 (let (($x2809 (= cell_1_5 9)))
 (let (($x2094 (= cell_1_5 8)))
 (let (($x3355 (= cell_1_5 7)))
 (let (($x375 (= cell_1_5 6)))
 (let (($x1364 (= cell_1_5 5)))
 (let (($x1484 (= cell_1_5 4)))
 (let (($x1804 (= cell_1_5 3)))
 (let (($x1240 (= cell_1_5 2)))
 (let (($x320 (= cell_1_5 1)))
 (or $x320 $x1240 $x1804 $x1484 $x1364 $x375 $x3355 $x2094 $x2809)))))))))))
(assert
 (let (($x3570 (= cell_2_5 9)))
 (let (($x415 (= cell_2_5 8)))
 (let (($x1394 (= cell_2_5 7)))
 (let (($x2396 (= cell_2_5 6)))
 (let (($x1977 (= cell_2_5 5)))
 (let (($x1570 (= cell_2_5 4)))
 (let (($x2604 (= cell_2_5 3)))
 (let (($x2138 (= cell_2_5 2)))
 (let (($x972 (= cell_2_5 1)))
 (or $x972 $x2138 $x2604 $x1570 $x1977 $x2396 $x1394 $x415 $x3570)))))))))))
(assert
 (let (($x1414 (= cell_3_5 9)))
 (let (($x681 (= cell_3_5 8)))
 (let (($x270 (= cell_3_5 7)))
 (let (($x2804 (= cell_3_5 6)))
 (let (($x2329 (= cell_3_5 5)))
 (let (($x1692 (= cell_3_5 4)))
 (let (($x4170 (= cell_3_5 3)))
 (let (($x958 (= cell_3_5 2)))
 (let (($x2669 (= cell_3_5 1)))
 (or $x2669 $x958 $x4170 $x1692 $x2329 $x2804 $x270 $x681 $x1414)))))))))))
(assert
 (let (($x1920 (= cell_4_5 9)))
 (let (($x2106 (= cell_4_5 8)))
 (let (($x1029 (= cell_4_5 7)))
 (let (($x577 (= cell_4_5 6)))
 (let (($x7805 (= cell_4_5 5)))
 (let (($x2745 (= cell_4_5 4)))
 (let (($x1138 (= cell_4_5 3)))
 (let (($x1125 (= cell_4_5 2)))
 (let (($x2595 (= cell_4_5 1)))
 (or $x2595 $x1125 $x1138 $x2745 $x7805 $x577 $x1029 $x2106 $x1920)))))))))))
(assert
 (let (($x806 (= cell_5_5 9)))
 (let (($x919 (= cell_5_5 8)))
 (let (($x1578 (= cell_5_5 7)))
 (let (($x493 (= cell_5_5 6)))
 (let (($x3619 (= cell_5_5 5)))
 (let (($x963 (= cell_5_5 4)))
 (let (($x438 (= cell_5_5 3)))
 (let (($x2987 (= cell_5_5 2)))
 (let (($x1314 (= cell_5_5 1)))
 (or $x1314 $x2987 $x438 $x963 $x3619 $x493 $x1578 $x919 $x806)))))))))))
(assert
 (let (($x2795 (= cell_6_5 9)))
 (let (($x2071 (= cell_6_5 8)))
 (let (($x2398 (= cell_6_5 7)))
 (let (($x901 (= cell_6_5 6)))
 (let (($x2173 (= cell_6_5 5)))
 (let (($x2568 (= cell_6_5 4)))
 (let (($x3216 (= cell_6_5 3)))
 (let (($x3400 (= cell_6_5 2)))
 (let (($x3434 (= cell_6_5 1)))
 (or $x3434 $x3400 $x3216 $x2568 $x2173 $x901 $x2398 $x2071 $x2795)))))))))))
(assert
 (let (($x1263 (= cell_7_5 1)))
 (or $x1263 (= cell_7_5 2) (= cell_7_5 3) (= cell_7_5 4) (= cell_7_5 5) (= cell_7_5 6) (= cell_7_5 7) (= cell_7_5 8) (= cell_7_5 9))))
(assert
 (let (($x433 (= cell_8_5 9)))
 (let (($x703 (= cell_8_5 8)))
 (let (($x2226 (= cell_8_5 7)))
 (let (($x1883 (= cell_8_5 6)))
 (let (($x2573 (= cell_8_5 5)))
 (let (($x535 (= cell_8_5 4)))
 (let (($x1177 (= cell_8_5 3)))
 (let (($x2264 (= cell_8_5 2)))
 (let (($x167 (= cell_8_5 1)))
 (or $x167 $x2264 $x1177 $x535 $x2573 $x1883 $x2226 $x703 $x433)))))))))))
(assert
 (let (($x3777 (= cell_9_5 1)))
 (or $x3777 (= cell_9_5 2) (= cell_9_5 3) (= cell_9_5 4) (= cell_9_5 5) (= cell_9_5 6) (= cell_9_5 7) (= cell_9_5 8) (= cell_9_5 9))))
(assert
 (let (($x1234 (= cell_1_6 2)))
 (or (= cell_1_6 1) $x1234 (= cell_1_6 3) (= cell_1_6 4) (= cell_1_6 5) (= cell_1_6 6) (= cell_1_6 7) (= cell_1_6 8) (= cell_1_6 9))))
(assert
 (let (($x3542 (= cell_2_6 1)))
 (or $x3542 (= cell_2_6 2) (= cell_2_6 3) (= cell_2_6 4) (= cell_2_6 5) (= cell_2_6 6) (= cell_2_6 7) (= cell_2_6 8) (= cell_2_6 9))))
(assert
 (let (($x1593 (= cell_3_6 9)))
 (let (($x1423 (= cell_3_6 8)))
 (let (($x2672 (= cell_3_6 7)))
 (let (($x2450 (= cell_3_6 6)))
 (let (($x3598 (= cell_3_6 5)))
 (let (($x1274 (= cell_3_6 4)))
 (let (($x239 (= cell_3_6 3)))
 (let (($x3886 (= cell_3_6 2)))
 (let (($x2234 (= cell_3_6 1)))
 (or $x2234 $x3886 $x239 $x1274 $x3598 $x2450 $x2672 $x1423 $x1593)))))))))))
(assert
 (let (($x2715 (= cell_4_6 2)))
 (let (($x925 (= cell_4_6 1)))
 (or $x925 $x2715 (= cell_4_6 3) (= cell_4_6 4) (= cell_4_6 5) (= cell_4_6 6) (= cell_4_6 7) (= cell_4_6 8) (= cell_4_6 9)))))
(assert
 (let (($x1802 (= cell_5_6 2)))
 (let (($x7962 (= cell_5_6 1)))
 (or $x7962 $x1802 (= cell_5_6 3) (= cell_5_6 4) (= cell_5_6 5) (= cell_5_6 6) (= cell_5_6 7) (= cell_5_6 8) (= cell_5_6 9)))))
(assert
 (let (($x1958 (= cell_6_6 9)))
 (let (($x1073 (= cell_6_6 8)))
 (let (($x2270 (= cell_6_6 7)))
 (let (($x1085 (= cell_6_6 6)))
 (let (($x2919 (= cell_6_6 5)))
 (let (($x2593 (= cell_6_6 4)))
 (let (($x3988 (= cell_6_6 3)))
 (let (($x3615 (= cell_6_6 2)))
 (let (($x1481 (= cell_6_6 1)))
 (or $x1481 $x3615 $x3988 $x2593 $x2919 $x1085 $x2270 $x1073 $x1958)))))))))))
(assert
 (let (($x1337 (= cell_7_6 9)))
 (let (($x448 (= cell_7_6 8)))
 (let (($x1065 (= cell_7_6 7)))
 (let (($x1625 (= cell_7_6 6)))
 (let (($x2726 (= cell_7_6 5)))
 (let (($x803 (= cell_7_6 4)))
 (let (($x829 (= cell_7_6 3)))
 (let (($x35 (= cell_7_6 2)))
 (let (($x2896 (= cell_7_6 1)))
 (or $x2896 $x35 $x829 $x803 $x2726 $x1625 $x1065 $x448 $x1337)))))))))))
(assert
 (let (($x1191 (= cell_8_6 9)))
 (let (($x1392 (= cell_8_6 8)))
 (let (($x1647 (= cell_8_6 7)))
 (let (($x188 (= cell_8_6 6)))
 (let (($x1524 (= cell_8_6 5)))
 (let (($x1487 (= cell_8_6 4)))
 (let (($x1287 (= cell_8_6 3)))
 (let (($x3693 (= cell_8_6 2)))
 (let (($x2763 (= cell_8_6 1)))
 (or $x2763 $x3693 $x1287 $x1487 $x1524 $x188 $x1647 $x1392 $x1191)))))))))))
(assert
 (let (($x2487 (= cell_9_6 2)))
 (let (($x115 (= cell_9_6 1)))
 (or $x115 $x2487 (= cell_9_6 3) (= cell_9_6 4) (= cell_9_6 5) (= cell_9_6 6) (= cell_9_6 7) (= cell_9_6 8) (= cell_9_6 9)))))
(assert
 (let (($x622 (= cell_1_7 9)))
 (let (($x661 (= cell_1_7 8)))
 (let (($x1904 (= cell_1_7 7)))
 (let (($x2575 (= cell_1_7 6)))
 (let (($x1582 (= cell_1_7 5)))
 (let (($x3412 (= cell_1_7 4)))
 (let (($x80 (= cell_1_7 3)))
 (let (($x2617 (= cell_1_7 2)))
 (let (($x464 (= cell_1_7 1)))
 (or $x464 $x2617 $x80 $x3412 $x1582 $x2575 $x1904 $x661 $x622)))))))))))
(assert
 (let (($x1020 (= cell_2_7 9)))
 (let (($x3888 (= cell_2_7 8)))
 (let (($x1478 (= cell_2_7 7)))
 (let (($x2882 (= cell_2_7 6)))
 (let (($x1988 (= cell_2_7 5)))
 (let (($x1037 (= cell_2_7 4)))
 (let (($x3796 (= cell_2_7 3)))
 (let (($x2928 (= cell_2_7 2)))
 (let (($x716 (= cell_2_7 1)))
 (or $x716 $x2928 $x3796 $x1037 $x1988 $x2882 $x1478 $x3888 $x1020)))))))))))
(assert
 (let (($x2826 (= cell_3_7 9)))
 (let (($x2151 (= cell_3_7 8)))
 (let (($x324 (= cell_3_7 7)))
 (let (($x1993 (= cell_3_7 6)))
 (let (($x257 (= cell_3_7 5)))
 (let (($x874 (= cell_3_7 4)))
 (let (($x837 (= cell_3_7 3)))
 (let (($x3608 (= cell_3_7 2)))
 (let (($x775 (= cell_3_7 1)))
 (or $x775 $x3608 $x837 $x874 $x257 $x1993 $x324 $x2151 $x2826)))))))))))
(assert
 (let (($x3342 (= cell_4_7 9)))
 (let (($x2172 (= cell_4_7 8)))
 (let (($x144 (= cell_4_7 7)))
 (let (($x3889 (= cell_4_7 6)))
 (let (($x3242 (= cell_4_7 5)))
 (let (($x3045 (= cell_4_7 4)))
 (let (($x804 (= cell_4_7 3)))
 (let (($x1664 (= cell_4_7 2)))
 (let (($x2376 (= cell_4_7 1)))
 (or $x2376 $x1664 $x804 $x3045 $x3242 $x3889 $x144 $x2172 $x3342)))))))))))
(assert
 (let (($x631 (= cell_5_7 9)))
 (let (($x133 (= cell_5_7 8)))
 (let (($x452 (= cell_5_7 7)))
 (let (($x3377 (= cell_5_7 6)))
 (let (($x2875 (= cell_5_7 5)))
 (let (($x1866 (= cell_5_7 4)))
 (let (($x2214 (= cell_5_7 3)))
 (let (($x899 (= cell_5_7 2)))
 (let (($x2489 (= cell_5_7 1)))
 (or $x2489 $x899 $x2214 $x1866 $x2875 $x3377 $x452 $x133 $x631)))))))))))
(assert
 (let (($x1055 (= cell_6_7 9)))
 (let (($x538 (= cell_6_7 8)))
 (let (($x3382 (= cell_6_7 7)))
 (let (($x2530 (= cell_6_7 6)))
 (let (($x1454 (= cell_6_7 5)))
 (let (($x1179 (= cell_6_7 4)))
 (let (($x1292 (= cell_6_7 3)))
 (let (($x2737 (= cell_6_7 2)))
 (let (($x1648 (= cell_6_7 1)))
 (or $x1648 $x2737 $x1292 $x1179 $x1454 $x2530 $x3382 $x538 $x1055)))))))))))
(assert
 (let (($x761 (= cell_7_7 9)))
 (let (($x1174 (= cell_7_7 8)))
 (let (($x307 (= cell_7_7 7)))
 (let (($x3186 (= cell_7_7 6)))
 (let (($x2282 (= cell_7_7 5)))
 (let (($x3399 (= cell_7_7 4)))
 (let (($x2269 (= cell_7_7 3)))
 (let (($x2599 (= cell_7_7 2)))
 (let (($x4061 (= cell_7_7 1)))
 (or $x4061 $x2599 $x2269 $x3399 $x2282 $x3186 $x307 $x1174 $x761)))))))))))
(assert
 (let (($x7853 (= cell_8_7 1)))
 (or $x7853 (= cell_8_7 2) (= cell_8_7 3) (= cell_8_7 4) (= cell_8_7 5) (= cell_8_7 6) (= cell_8_7 7) (= cell_8_7 8) (= cell_8_7 9))))
(assert
 (let (($x2451 (= cell_9_7 1)))
 (or $x2451 (= cell_9_7 2) (= cell_9_7 3) (= cell_9_7 4) (= cell_9_7 5) (= cell_9_7 6) (= cell_9_7 7) (= cell_9_7 8) (= cell_9_7 9))))
(assert
 (let (($x3076 (= cell_1_8 9)))
 (let (($x2169 (= cell_1_8 8)))
 (let (($x2026 (= cell_1_8 7)))
 (let (($x3916 (= cell_1_8 6)))
 (let (($x525 (= cell_1_8 5)))
 (let (($x1407 (= cell_1_8 4)))
 (let (($x3460 (= cell_1_8 3)))
 (let (($x3990 (= cell_1_8 2)))
 (let (($x816 (= cell_1_8 1)))
 (or $x816 $x3990 $x3460 $x1407 $x525 $x3916 $x2026 $x2169 $x3076)))))))))))
(assert
 (let (($x3136 (= cell_2_8 9)))
 (let (($x171 (= cell_2_8 8)))
 (let (($x3114 (= cell_2_8 7)))
 (let (($x417 (= cell_2_8 6)))
 (let (($x937 (= cell_2_8 5)))
 (let (($x3518 (= cell_2_8 4)))
 (let (($x352 (= cell_2_8 3)))
 (let (($x3669 (= cell_2_8 2)))
 (let (($x996 (= cell_2_8 1)))
 (or $x996 $x3669 $x352 $x3518 $x937 $x417 $x3114 $x171 $x3136)))))))))))
(assert
 (let (($x3157 (= cell_3_8 2)))
 (or (= cell_3_8 1) $x3157 (= cell_3_8 3) (= cell_3_8 4) (= cell_3_8 5) (= cell_3_8 6) (= cell_3_8 7) (= cell_3_8 8) (= cell_3_8 9))))
(assert
 (let (($x3827 (= cell_4_8 9)))
 (let (($x1057 (= cell_4_8 8)))
 (let (($x1621 (= cell_4_8 7)))
 (let (($x1509 (= cell_4_8 6)))
 (let (($x1413 (= cell_4_8 5)))
 (let (($x7845 (= cell_4_8 4)))
 (let (($x2682 (= cell_4_8 3)))
 (let (($x2266 (= cell_4_8 2)))
 (let (($x2318 (= cell_4_8 1)))
 (or $x2318 $x2266 $x2682 $x7845 $x1413 $x1509 $x1621 $x1057 $x3827)))))))))))
(assert
 (let (($x1579 (= cell_5_8 9)))
 (let (($x1896 (= cell_5_8 8)))
 (let (($x29 (= cell_5_8 7)))
 (let (($x397 (= cell_5_8 6)))
 (let (($x1924 (= cell_5_8 5)))
 (let (($x3968 (= cell_5_8 4)))
 (let (($x2343 (= cell_5_8 3)))
 (let (($x2774 (= cell_5_8 2)))
 (let (($x801 (= cell_5_8 1)))
 (or $x801 $x2774 $x2343 $x3968 $x1924 $x397 $x29 $x1896 $x1579)))))))))))
(assert
 (let (($x1093 (= cell_6_8 1)))
 (or $x1093 (= cell_6_8 2) (= cell_6_8 3) (= cell_6_8 4) (= cell_6_8 5) (= cell_6_8 6) (= cell_6_8 7) (= cell_6_8 8) (= cell_6_8 9))))
(assert
 (let (($x2411 (= cell_7_8 9)))
 (let (($x3341 (= cell_7_8 8)))
 (let (($x2865 (= cell_7_8 7)))
 (let (($x2931 (= cell_7_8 6)))
 (let (($x2020 (= cell_7_8 5)))
 (let (($x903 (= cell_7_8 4)))
 (let (($x1200 (= cell_7_8 3)))
 (let (($x747 (= cell_7_8 2)))
 (let (($x11 (= cell_7_8 1)))
 (or $x11 $x747 $x1200 $x903 $x2020 $x2931 $x2865 $x3341 $x2411)))))))))))
(assert
 (let (($x2009 (= cell_8_8 2)))
 (let (($x4065 (= cell_8_8 1)))
 (or $x4065 $x2009 (= cell_8_8 3) (= cell_8_8 4) (= cell_8_8 5) (= cell_8_8 6) (= cell_8_8 7) (= cell_8_8 8) (= cell_8_8 9)))))
(assert
 (let (($x3766 (= cell_9_8 2)))
 (let (($x3932 (= cell_9_8 1)))
 (or $x3932 $x3766 (= cell_9_8 3) (= cell_9_8 4) (= cell_9_8 5) (= cell_9_8 6) (= cell_9_8 7) (= cell_9_8 8) (= cell_9_8 9)))))
(assert
 (let (($x1830 (= cell_1_9 9)))
 (let (($x2108 (= cell_1_9 8)))
 (let (($x1859 (= cell_1_9 7)))
 (let (($x3235 (= cell_1_9 6)))
 (let (($x2434 (= cell_1_9 5)))
 (let (($x688 (= cell_1_9 4)))
 (let (($x1344 (= cell_1_9 3)))
 (let (($x1775 (= cell_1_9 2)))
 (let (($x1735 (= cell_1_9 1)))
 (or $x1735 $x1775 $x1344 $x688 $x2434 $x3235 $x1859 $x2108 $x1830)))))))))))
(assert
 (let (($x2402 (= cell_2_9 9)))
 (let (($x2313 (= cell_2_9 8)))
 (let (($x4190 (= cell_2_9 7)))
 (let (($x60 (= cell_2_9 6)))
 (let (($x350 (= cell_2_9 5)))
 (let (($x2854 (= cell_2_9 4)))
 (let (($x1084 (= cell_2_9 3)))
 (let (($x1354 (= cell_2_9 2)))
 (let (($x3097 (= cell_2_9 1)))
 (or $x3097 $x1354 $x1084 $x2854 $x350 $x60 $x4190 $x2313 $x2402)))))))))))
(assert
 (let (($x1376 (= cell_3_9 1)))
 (or $x1376 (= cell_3_9 2) (= cell_3_9 3) (= cell_3_9 4) (= cell_3_9 5) (= cell_3_9 6) (= cell_3_9 7) (= cell_3_9 8) (= cell_3_9 9))))
(assert
 (let (($x2250 (= cell_4_9 9)))
 (let (($x1863 (= cell_4_9 8)))
 (let (($x2748 (= cell_4_9 7)))
 (let (($x345 (= cell_4_9 6)))
 (let (($x393 (= cell_4_9 5)))
 (let (($x2833 (= cell_4_9 4)))
 (let (($x2559 (= cell_4_9 3)))
 (let (($x1987 (= cell_4_9 2)))
 (let (($x1058 (= cell_4_9 1)))
 (or $x1058 $x1987 $x2559 $x2833 $x393 $x345 $x2748 $x1863 $x2250)))))))))))
(assert
 (let (($x2362 (= cell_5_9 9)))
 (let (($x1461 (= cell_5_9 8)))
 (let (($x1219 (= cell_5_9 7)))
 (let (($x1118 (= cell_5_9 6)))
 (let (($x3760 (= cell_5_9 5)))
 (let (($x3503 (= cell_5_9 4)))
 (let (($x3083 (= cell_5_9 3)))
 (let (($x793 (= cell_5_9 2)))
 (let (($x2433 (= cell_5_9 1)))
 (or $x2433 $x793 $x3083 $x3503 $x3760 $x1118 $x1219 $x1461 $x2362)))))))))))
(assert
 (let (($x936 (= cell_6_9 1)))
 (or $x936 (= cell_6_9 2) (= cell_6_9 3) (= cell_6_9 4) (= cell_6_9 5) (= cell_6_9 6) (= cell_6_9 7) (= cell_6_9 8) (= cell_6_9 9))))
(assert
 (let (($x1639 (= cell_7_9 9)))
 (let (($x1550 (= cell_7_9 8)))
 (let (($x453 (= cell_7_9 7)))
 (let (($x2880 (= cell_7_9 6)))
 (let (($x1957 (= cell_7_9 5)))
 (let (($x3047 (= cell_7_9 4)))
 (let (($x2303 (= cell_7_9 3)))
 (let (($x3249 (= cell_7_9 2)))
 (let (($x454 (= cell_7_9 1)))
 (or $x454 $x3249 $x2303 $x3047 $x1957 $x2880 $x453 $x1550 $x1639)))))))))))
(assert
 (let (($x3854 (= cell_8_9 1)))
 (or $x3854 (= cell_8_9 2) (= cell_8_9 3) (= cell_8_9 4) (= cell_8_9 5) (= cell_8_9 6) (= cell_8_9 7) (= cell_8_9 8) (= cell_8_9 9))))
(assert
 (let (($x277 (= cell_9_9 1)))
 (or $x277 (= cell_9_9 2) (= cell_9_9 3) (= cell_9_9 4) (= cell_9_9 5) (= cell_9_9 6) (= cell_9_9 7) (= cell_9_9 8) (= cell_9_9 9))))
(assert
 (and (distinct cell_1_1 cell_1_2 cell_1_3 cell_1_4 cell_1_5 cell_1_6 cell_1_7 cell_1_8 cell_1_9) true))
(assert
 (and (distinct cell_2_1 cell_2_2 cell_2_3 cell_2_4 cell_2_5 cell_2_6 cell_2_7 cell_2_8 cell_2_9) true))
(assert
 (and (distinct cell_3_1 cell_3_2 cell_3_3 cell_3_4 cell_3_5 cell_3_6 cell_3_7 cell_3_8 cell_3_9) true))
(assert
 (and (distinct cell_4_1 cell_4_2 cell_4_3 cell_4_4 cell_4_5 cell_4_6 cell_4_7 cell_4_8 cell_4_9) true))
(assert
 (and (distinct cell_5_1 cell_5_2 cell_5_3 cell_5_4 cell_5_5 cell_5_6 cell_5_7 cell_5_8 cell_5_9) true))
(assert
 (and (distinct cell_6_1 cell_6_2 cell_6_3 cell_6_4 cell_6_5 cell_6_6 cell_6_7 cell_6_8 cell_6_9) true))
(assert
 (and (distinct cell_7_1 cell_7_2 cell_7_3 cell_7_4 cell_7_5 cell_7_6 cell_7_7 cell_7_8 cell_7_9) true))
(assert
 (and (distinct cell_8_1 cell_8_2 cell_8_3 cell_8_4 cell_8_5 cell_8_6 cell_8_7 cell_8_8 cell_8_9) true))
(assert
 (and (distinct cell_9_1 cell_9_2 cell_9_3 cell_9_4 cell_9_5 cell_9_6 cell_9_7 cell_9_8 cell_9_9) true))
(assert
 (and (distinct cell_1_1 cell_2_1 cell_3_1 cell_4_1 cell_5_1 cell_6_1 cell_7_1 cell_8_1 cell_9_1) true))
(assert
 (and (distinct cell_1_2 cell_2_2 cell_3_2 cell_4_2 cell_5_2 cell_6_2 cell_7_2 cell_8_2 cell_9_2) true))
(assert
 (and (distinct cell_1_3 cell_2_3 cell_3_3 cell_4_3 cell_5_3 cell_6_3 cell_7_3 cell_8_3 cell_9_3) true))
(assert
 (and (distinct cell_1_4 cell_2_4 cell_3_4 cell_4_4 cell_5_4 cell_6_4 cell_7_4 cell_8_4 cell_9_4) true))
(assert
 (and (distinct cell_1_5 cell_2_5 cell_3_5 cell_4_5 cell_5_5 cell_6_5 cell_7_5 cell_8_5 cell_9_5) true))
(assert
 (and (distinct cell_1_6 cell_2_6 cell_3_6 cell_4_6 cell_5_6 cell_6_6 cell_7_6 cell_8_6 cell_9_6) true))
(assert
 (and (distinct cell_1_7 cell_2_7 cell_3_7 cell_4_7 cell_5_7 cell_6_7 cell_7_7 cell_8_7 cell_9_7) true))
(assert
 (and (distinct cell_1_8 cell_2_8 cell_3_8 cell_4_8 cell_5_8 cell_6_8 cell_7_8 cell_8_8 cell_9_8) true))
(assert
 (and (distinct cell_1_9 cell_2_9 cell_3_9 cell_4_9 cell_5_9 cell_6_9 cell_7_9 cell_8_9 cell_9_9) true))
(assert
 (and (distinct cell_1_1 cell_1_2 cell_1_3 cell_2_1 cell_2_2 cell_2_3 cell_3_1 cell_3_2 cell_3_3) true))
(assert
 (and (distinct cell_1_4 cell_1_5 cell_1_6 cell_2_4 cell_2_5 cell_2_6 cell_3_4 cell_3_5 cell_3_6) true))
(assert
 (and (distinct cell_1_7 cell_1_8 cell_1_9 cell_2_7 cell_2_8 cell_2_9 cell_3_7 cell_3_8 cell_3_9) true))
(assert
 (and (distinct cell_4_1 cell_4_2 cell_4_3 cell_5_1 cell_5_2 cell_5_3 cell_6_1 cell_6_2 cell_6_3) true))
(assert
 (and (distinct cell_4_4 cell_4_5 cell_4_6 cell_5_4 cell_5_5 cell_5_6 cell_6_4 cell_6_5 cell_6_6) true))
(assert
 (and (distinct cell_4_7 cell_4_8 cell_4_9 cell_5_7 cell_5_8 cell_5_9 cell_6_7 cell_6_8 cell_6_9) true))
(assert
 (and (distinct cell_7_1 cell_7_2 cell_7_3 cell_8_1 cell_8_2 cell_8_3 cell_9_1 cell_9_2 cell_9_3) true))
(assert
 (and (distinct cell_7_4 cell_7_5 cell_7_6 cell_8_4 cell_8_5 cell_8_6 cell_9_4 cell_9_5 cell_9_6) true))
(assert
 (and (distinct cell_7_7 cell_7_8 cell_7_9 cell_8_7 cell_8_8 cell_8_9 cell_9_7 cell_9_8 cell_9_9) true))
(assert
 (let (($x3861 (and (distinct cell_5_9 cell_6_8 cell_7_7 cell_8_6) true)))
 (let (($x2415 (and (distinct cell_2_9 cell_3_8 cell_4_7 cell_5_6 cell_6_5 cell_7_4 cell_8_3 cell_9_2) true)))
 (let (($x1624 (and (distinct cell_1_8 cell_2_7 cell_3_6 cell_4_5 cell_5_4 cell_6_3 cell_7_2 cell_8_1) true)))
 (let (($x225 (and (distinct cell_1_5 cell_2_4 cell_3_3 cell_4_2) true)))
 (let (($x204 (and (distinct cell_5_1 cell_6_2 cell_7_3 cell_8_4) true)))
 (let (($x1040 (and (distinct cell_2_1 cell_3_2 cell_4_3 cell_5_4 cell_6_5 cell_7_6 cell_8_7 cell_9_8) true)))
 (let (($x3172 (and (distinct cell_1_2 cell_2_3 cell_3_4 cell_4_5 cell_5_6 cell_6_7 cell_7_8 cell_8_9) true)))
 (let (($x2030 (and (distinct cell_1_5 cell_2_6 cell_3_7 cell_4_8) true)))
 (and $x2030 $x3172 $x1040 $x204 $x225 $x1624 $x2415 $x3861))))))))))
(assert
 (= cell_4_9 2))
(check-sat)
